 vasp.5.4.1 05Feb16 (build Jul 05 2020 17:13:04) complex

 executed on           IFC91_ompi date 2024.05.11  03:57:06

 INCAR:
 POTCAR:   PAW_PBE V 08Apr2002
 POTCAR:   PAW_PBE Mo 08Apr2002
 POTCAR:   PAW_PBE W 08Apr2002
 POTCAR:    PAW_PBE S 17Jan2003

 POTCAR:   PAW_PBE V 08Apr2002
   VRHFIN =V: p6 d4 s1

   TITEL  = PAW_PBE V 08Apr2002
   POMASS =   50.941; ZVAL   =    5.000    mass and valenz
   ENMAX  =  192.543; ENMIN  =  144.408 eV
   QCUT   =   -3.762; QGAM   =    7.524    optimization parameters

   Description
     l     E      TYP  RCUT    TYP  RCUT
     2   .000     23  2.700
     2   .000     23  2.700
     0   .000     23  2.700
     0  2.000     23  2.700
     1   .000     23  2.700
     1  2.000     23  2.700
     3   .000      7   .000

 POTCAR:   PAW_PBE Mo 08Apr2002
   VRHFIN =Mo: 4p5s4d

[...]

 POTCAR:   PAW_PBE W 08Apr2002
   VRHFIN =W : 6s5d

   TITEL  = PAW_PBE W 08Apr2002
   POMASS =  183.850; ZVAL   =    6.000    mass and valenz
   ENMAX  =  223.057; ENMIN  =  167.293 eV
   QCUT   =   -4.049; QGAM   =    8.098    optimization parameters

[...]

 POTCAR:    PAW_PBE S 17Jan2003
   VRHFIN =S : s2p4

   TITEL  = PAW_PBE S 17Jan2003
   POMASS =   32.066; ZVAL   =    6.000    mass and valenz
   ENMAX  =  280.000; ENMIN  =  194.016 eV
   QCUT   =   -4.360; QGAM   =    8.721    optimization parameters

   Description
     l     E      TYP  RCUT    TYP  RCUT
     0   .000     23  1.900
     0   .000     23  1.900
     1   .000     23  1.900
     1   .000     23  1.900
     2   .000     23  1.900

 PAW_PBE V 08Apr2002                    :
 PAW_PBE Mo 08Apr2002                   :
 PAW_PBE W 08Apr2002                    :
  PAW_PBE S 17Jan2003                   :

 POSCAR: crystal structure from VMoWS2 with Hexag
  positions in cartesian coordinates
 exchange correlation table for  LEXCH =        8
   RHO(1)=    0.500       N(1)  =     2000
   RHO(2)=  100.500       N(2)  =     4000

 ion  position               nearest neighbor table
   1  0.333  0.667  0.000-  15 2.34  18 2.34  20 2.36  21 2.36  13 2.36  12 2.36
   2  0.000  0.000  0.000-  23 2.34  14 2.34  11 2.36  10 2.36  27 2.36  26 2.36
   3  1.000  0.333  0.000-  25 2.34  10 2.34  13 2.36  12 2.36  22 2.36  23 2.36
   4  0.000  0.667  0.000-  27 2.34  12 2.34  14 2.36  15 2.36  24 2.36  25 2.36   9 3.34   5 3.36
                             6 3.36
   5  0.333  0.000  0.000-  11 2.34  20 2.34  17 2.36  16 2.36  15 2.36  14 2.36   7 3.34   8 3.34
                             4 3.36   6 3.36
   6  0.667  0.333  0.000-  19 2.34  22 2.34  25 2.36  24 2.36  17 2.36  16 2.36   9 3.34   8 3.34
                             7 3.34   4 3.36   5 3.36
   7  0.333  0.333  0.000-  13 2.34  16 2.34  19 2.36  18 2.36  11 2.36  10 2.36   5 3.34   6 3.34
                             9 3.36
   8  0.667  0.000  0.000-  17 2.34  26 2.34  23 2.36  22 2.36  21 2.36  20 2.36   9 3.34   6 3.34
                             5 3.34
   9  0.667  0.667  0.000-  21 2.34  24 2.34  27 2.36  26 2.36  19 2.36  18 2.36   4 3.34   8 3.34
                             6 3.34   7 3.36
  10  0.111  0.222  0.955-   3 2.34   2 2.36   7 2.36
  11  0.222  0.111  0.045-   5 2.34   2 2.36   7 2.36
  12  0.111  0.556  0.955-   4 2.34   3 2.36   1 2.36
  13  0.222  0.444  0.045-   7 2.34   3 2.36   1 2.36
  14  0.111  0.889  0.955-   2 2.34   4 2.36   5 2.36
  15  0.222  0.777  0.045-   1 2.34   4 2.36   5 2.36
  16  0.444  0.222  0.955-   7 2.34   5 2.36   6 2.36
  17  0.556  0.111  0.045-   8 2.34   5 2.36   6 2.36
  18  0.444  0.556  0.955-   1 2.34   7 2.36   9 2.36
  19  0.556  0.444  0.045-   6 2.34   7 2.36   9 2.36
  20  0.444  0.889  0.955-   5 2.34   1 2.36   8 2.36
  21  0.556  0.777  0.045-   9 2.34   1 2.36   8 2.36
  22  0.777  0.222  0.955-   6 2.34   8 2.36   3 2.36
  23  0.889  0.111  0.045-   2 2.34   8 2.36   3 2.36
  24  0.777  0.556  0.955-   9 2.34   6 2.36   4 2.36
  25  0.889  0.444  0.045-   3 2.34   6 2.36   4 2.36
  26  0.777  0.889  0.955-   8 2.34   9 2.36   2 2.36
  27  0.889  0.777  0.045-   4 2.34   9 2.36   2 2.36

IMPORTANT INFORMATION: All symmetrisations will be switched off!
NOSYMM: (Re-)initialisation of all symmetry stuff for point group C_1.

 KPOINTS: K-POINTS 	#supercell of CrS2 in hexagona

Automatic generation of k-mesh.
Space group operators:
 irot       det(A)        alpha          n_x          n_y          n_z        tau_x        tau_y        tau_z
    1     1.000000     0.000000     1.000000     0.000000     0.000000     0.000000     0.000000     0.000000

 Subroutine IBZKPT returns following result:

 Found     34 irreducible k-points:

 Following reciprocal coordinates:
            Coordinates               Weight
  0.000000  0.000000  0.000000      1.000000
  0.125000  0.000000  0.000000      2.000000
  0.250000  0.000000  0.000000      2.000000
  0.375000  0.000000  0.000000      2.000000
  0.500000  0.000000  0.000000      1.000000
  0.000000  0.125000  0.000000      2.000000
  0.125000  0.125000  0.000000      2.000000
  0.250000  0.125000  0.000000      2.000000
  0.375000  0.125000  0.000000      2.000000
  0.500000  0.125000  0.000000      2.000000
 -0.375000  0.125000  0.000000      2.000000
 -0.250000  0.125000  0.000000      2.000000
 -0.125000  0.125000  0.000000      2.000000
  0.000000  0.250000  0.000000      2.000000
  0.125000  0.250000  0.000000      2.000000
  0.250000  0.250000  0.000000      2.000000
  0.375000  0.250000  0.000000      2.000000
  0.500000  0.250000  0.000000      2.000000
 -0.375000  0.250000  0.000000      2.000000
 -0.250000  0.250000  0.000000      2.000000
 -0.125000  0.250000  0.000000      2.000000
 -0.000000  0.375000  0.000000      2.000000
  0.125000  0.375000  0.000000      2.000000
  0.250000  0.375000  0.000000      2.000000
  0.375000  0.375000  0.000000      2.000000
  0.500000  0.375000  0.000000      2.000000
 -0.375000  0.375000  0.000000      2.000000
 -0.250000  0.375000  0.000000      2.000000
 -0.125000  0.375000  0.000000      2.000000
  0.000000  0.500000  0.000000      1.000000
  0.125000  0.500000  0.000000      2.000000
  0.250000  0.500000  0.000000      2.000000
  0.375000  0.500000  0.000000      2.000000
  0.500000  0.500000  0.000000      1.000000

 Following cartesian coordinates:
            Coordinates               Weight
  0.000000  0.000000  0.000000      1.000000
  0.007209  0.012401  0.000000      2.000000
  0.014418  0.024802  0.000000      2.000000
  0.021626  0.037202  0.000000      2.000000
  0.028835  0.049603  0.000000      1.000000
 -0.007209  0.012401  0.000000      2.000000
  0.000000  0.024802  0.000000      2.000000
  0.007209  0.037202  0.000000      2.000000
  0.014418  0.049603  0.000000      2.000000
  0.021626  0.062004  0.000000      2.000000
 -0.028835 -0.024802  0.000000      2.000000
 -0.021626 -0.012401  0.000000      2.000000
 -0.014418  0.000000  0.000000      2.000000
 -0.014418  0.024802  0.000000      2.000000
 -0.007209  0.037202  0.000000      2.000000
  0.000000  0.049603  0.000000      2.000000
  0.007209  0.062004  0.000000      2.000000
  0.014418  0.074405  0.000000      2.000000
 -0.036044 -0.012401  0.000000      2.000000
 -0.028835  0.000000  0.000000      2.000000
 -0.021626  0.012401  0.000000      2.000000
 -0.021626  0.037202  0.000000      2.000000
 -0.014418  0.049603  0.000000      2.000000
 -0.007209  0.062004  0.000000      2.000000
  0.000000  0.074405  0.000000      2.000000
  0.007209  0.086806  0.000000      2.000000
 -0.043253  0.000000  0.000000      2.000000
 -0.036044  0.012401  0.000000      2.000000
 -0.028835  0.024802  0.000000      2.000000
 -0.028835  0.049603  0.000000      1.000000
 -0.021626  0.062004  0.000000      2.000000
 -0.014418  0.074405  0.000000      2.000000
 -0.007209  0.086806  0.000000      2.000000
  0.000000  0.099206  0.000000      1.000000

 I would recommend the setting:
   dimension x,y,z NGX =    41 NGY =   41 NGZ =  123
 SYSTEM =  unknown system
 POSCAR =  crystal structure from VMoWS2 with Hexag

 Startparameter for this run:
   NWRITE =      2    write-flag & timer
   PREC   = normal    normal or accurate (medium, high low for compatibility)
   ISTART =      0    job   : 0-new  1-cont  2-samecut
   ICHARG =      2    charge: 1-file 2-atom 10-const
   ISPIN  =      1    spin polarized calculation?
   LNONCOLLINEAR =      F non collinear calculations
   LSORBIT =      F    spin-orbit coupling
   INIWAV =      1    electr: 0-lowe 1-rand  2-diag
   LASPH  =      F    aspherical Exc in radial PAW
   METAGGA=      F    non-selfconsistent MetaGGA calc.

 Electronic Relaxation 1
   ENCUT  =  280.0 eV  20.58 Ry    4.54 a.u.  13.68 13.68 40.93*2*pi/ulx,y,z
   ENINI  =  280.0     initial cutoff
   ENAUG  =  373.4 eV  augmentation charge cutoff
   NELM   =     60;   NELMIN=  2; NELMDL= -5     # of ELM steps
   EDIFF  = 0.1E-03   stopping-criterion for ELM
   LREAL  =      F    real-space projection
   NLSPLINE    = F    spline interpolate recip. space projectors
   LCOMPAT=      F    compatible to vasp.4.4
   GGA_COMPAT  = T    GGA compatible to vasp.4.4-vasp.4.6
   LMAXPAW     = -100 max onsite density
   LMAXMIX     =    2 max onsite mixed and CHGCAR
   VOSKOWN=      0    Vosko Wilk Nusair interpolation
   ROPT   =    0.00000   0.00000   0.00000   0.00000
 Ionic relaxation
   EDIFFG = 0.1E-02   stopping-criterion for IOM
   NSW    =    100    number of steps for IOM
   NBLOCK =      1;   KBLOCK =    100    inner block; outer block
   IBRION =      1    ionic relax: 0-MD 1-quasi-New 2-CG
   NFREE  =      0    steps in history (QN), initial steepest desc. (CG)
   ISIF   =      3    stress and relaxation
   IWAVPR =     11    prediction:  0-non 1-charg 2-wave 3-comb
   ISYM   =      0    0-nonsym 1-usesym 2-fastsym
   LCORR  =      T    Harris-Foulkes like correction to forces

   POTIM  = 0.5000    time-step for ionic-motion
   TEIN   =    0.0    initial temperature
   TEBEG  =    0.0;   TEEND  =   0.0 temperature during run
   SMASS  =  -3.00    Nose mass-parameter (am)
   estimated Nose-frequenzy (Omega)   =  0.10E-29 period in steps =****** mass=  -0.230E-26a.u.
   SCALEE = 1.0000    scale energy and forces
   NPACO  =    256;   APACO  = 16.0  distance and # of slots for P.C.
   PSTRESS=    0.0 pullay stress

  Mass of Ions in am
   POMASS =  50.94 95.94183.85 32.07
  Ionic Valenz
   ZVAL   =   5.00  6.00  6.00  6.00
  Atomic Wigner-Seitz radii
  virtual crystal weights
   VCA    =   1.00  1.00  1.00  1.00
   NELECT =     159.0000    total number of electrons
   NUPDOWN=      -1.0000    fix difference up-down

 DOS related values:
   EMIN   =  10.00;   EMAX   =-10.00  energy-range for DOS
   EFERMI =   0.00
   ISMEAR =     0;   SIGMA  =   0.20  broadening in eV -4-tet -1-fermi 0-gaus

 Electronic relaxation 2 (details)
   IALGO  =     38    algorithm
   LDIAG  =      T    sub-space diagonalisation (order eigenvalues)
   LSUBROT=      F    optimize rotation matrix (better conditioning)
   TURBO    =      0    0=normal 1=particle mesh
   IRESTART =      0    0=no restart 2=restart with 2 vectors
   NREBOOT  =      0    no. of reboots
   NMIN     =      0    reboot dimension
   EREF     =   0.00    reference energy to select bands
[...]
     -3.85900      3.35900     28.66200         0.909786      0.016313     -1.486238
     -1.92100      3.35900      1.33800        -0.746875      0.002526      1.432821
     -6.74900      5.03900     28.66200        -0.729677      0.015175     -2.104836
     -4.81100      5.03900      1.33800         0.734724     -0.007076      2.107927
      1.92100      3.35900     28.66200        -0.033875     -0.003982     -2.912425
      3.85900      3.35900      1.33800         0.044241      0.023240      2.892456
     -0.96900      5.03900     28.66200        -0.639524     -0.001465     -2.107898
      0.96900      5.03900      1.33800        -0.278212      0.025679      2.935825
     -3.85900      6.71900     28.66200         0.617153     -0.575338     -2.199739
     -1.92100      6.71900      1.33800        -0.452193     -0.566074      2.113263
      4.81100      5.03900     28.66200         0.610126      0.545988     -2.173974
      6.74900      5.03900      1.33800         0.257425      0.512505      1.410533
      1.92100      6.71900     28.66200        -0.024487     -0.009326     -2.910195
      3.85900      6.71900      1.33800         0.739823     -0.003942      2.106443
     -0.96900      8.39900     28.66200         0.457384      0.571698     -2.117238
      0.96900      8.39900      1.33800        -0.648369      0.559670      2.194852
    total drift:                               -0.000034      0.000083      0.000087

  FREE ENERGIE OF THE ION-ELECTRON SYSTEM (eV)
  free  energy   TOTEN  =      -186.89128558 eV

  energy  without entropy=     -186.54998439  energy(sigma->0) =     -186.72063498

 Quasi-Newton relaxation of ions (Broydens 2nd method)
  g(Force)  = 0.469E+01   g(Stress)= 0.355E+00

 Reset! Starting new Quasi-Newton update for ions

[...]

 d Force = 0.2382781E+01[ 0.665E-01, 0.470E+01]  d Energy = 0.1811004E+01 0.572E+00
 d Force = 0.9584877E+03[ 0.941E+03, 0.976E+03]  d Ewald  = 0.2509788E+04-0.155E+04

[...]

 retain information from N=  1 steps
 eigenvalues of (default step * inverse Hessian matrix)
  average eigenvalue of G=   0.2445
 eigenvalue spectrum of G is  0.2445

[...]

 d Force = 0.3531213E-01[ 0.344E-01, 0.363E-01]  d Energy = 0.1095110E+01-0.106E+01
 d Force =-0.3053920E+01[-0.312E+01,-0.298E+01]  d Ewald  =-0.1927906E+04 0.192E+04

[...]

 d Force = 0.4793697E+00[ 0.421E+00, 0.537E+00]  d Energy = 0.1002179E+01-0.523E+00
 d Force = 0.4129787E+03[ 0.423E+03, 0.403E+03]  d Ewald  =-0.1526131E+04 0.194E+04

[...]

 d Force = 0.5941571E-01[ 0.507E-01, 0.681E-01]  d Energy = 0.6274490E-01-0.333E-02
 d Force =-0.1080002E+02[-0.105E+02,-0.111E+02]  d Ewald  = 0.1637755E+03-0.175E+03

[...]

 d Force = 0.1364910E-01[ 0.880E-02, 0.185E-01]  d Energy = 0.1368208E-01-0.330E-04
 d Force =-0.1905441E+02[-0.189E+02,-0.192E+02]  d Ewald  = 0.2884471E+01-0.219E+02

[...]

 d Force = 0.2282897E-02[ 0.212E-02, 0.245E-02]  d Energy = 0.2166862E-02 0.116E-03
 d Force = 0.9181564E+00[ 0.926E+00, 0.910E+00]  d Ewald  = 0.9567271E+01-0.865E+01

[...]

 d Force = 0.2109727E-02[ 0.193E-02, 0.229E-02]  d Energy = 0.1905344E-02 0.204E-03
 d Force =-0.1515094E+00[-0.142E+00,-0.161E+00]  d Ewald  =-0.1481910E+02 0.147E+02

[...]

 FEWALD executed in parallel

[...]

 eigenvalue-minimisations  : 12600
 total energy-change (2. order) :-0.2688184E-02  (-0.1203473E-02)
 number of electron     159.0000016 magnetization
 augmentation part       -4.2433049 magnetization

[...]

 Broyden mixing:
  rms(total) = 0.10416E-01    rms(broyden)= 0.10400E-01
  rms(prec ) = 0.11296E-01
  weight for this iteration     100.00

 eigenvalues of (default mixing * dielectric matrix)
  average eigenvalue GAMMA=   0.5299
  0.8786  0.1811

[...]

----------------------------------------- Iteration   22(   4)  ---------------------------------------

 eigenvalue-minimisations  :  8640
 total energy-change (2. order) : 0.4470787E-05  (-0.4770112E-04)
 number of electron     159.0000016 magnetization
 augmentation part       -4.2195671 magnetization

 Free energy of the ion-electron system (eV)
  alpha Z        PSCENC =        89.20495033
  Ewald energy   TEWEN  =     44264.74755717
  -Hartree energ DENC   =    -50271.58809297
  -exchange      EXHF   =         0.00000000
  -V(xc)+E(xc)   XCENC  =      -233.58307401
  PAW double counting   =      4101.12735730    -3517.20722835
  entropy T*S    EENTRO =        -0.12517123
  eigenvalues    EBANDS =     -1386.48439657
  atomic energy  EATOM  =      6761.44252427
  Solvation  Ediel_sol  =         0.00000000
  free energy    TOTEN  =      -192.46557406 eV

  energy without entropy =     -192.34040283  energy(sigma->0) =     -192.40298845

 average (electrostatic) potential at core
  the test charge radii are     1.2064  1.2296  1.1823  0.9698
  (the norm of the test charge is              1.0000)
       1 -49.8611       2 -49.8189       3 -49.7344       4 -47.1006       5 -47.0879
       6 -47.0212       7 -49.5226       8 -49.6399       9 -49.5444      10 -94.5739
      11 -95.0841      12 -94.9366      13 -94.5705      14 -94.9390      15 -94.9840
      16 -95.2484      17 -95.3322      18 -94.6765      19 -95.3039      20 -95.0861
      21 -94.6867      22 -95.1866      23 -94.5552      24 -95.3042      25 -95.1300
      26 -94.6838      27 -95.0570

 E-fermi :  -3.2204     XC(G=0):  -2.5630     alpha+bet : -2.3593

[...]

 k-point    34 :       0.5000    0.5000    0.0000
  band No.  band energies     occupation
      1     -17.5049      2.00000
      2     -17.3591      2.00000
      3     -16.7589      2.00000
      4     -16.6788      2.00000
      5     -16.6721      2.00000
      6     -16.4358      2.00000
      7     -16.3301      2.00000
      8     -16.2393      2.00000
      9     -16.0444      2.00000
     10     -15.9950      2.00000
     11     -15.9366      2.00000
     12     -15.8455      2.00000
     13     -15.7222      2.00000
     14     -15.7083      2.00000
     15     -15.6545      2.00000
     16     -15.5562      2.00000
     17     -15.2894      2.00000
     18     -15.2546      2.00000
     19      -9.8371      2.00000
     20      -9.4164      2.00000
     21      -9.1696      2.00000
     22      -9.1064      2.00000
     23      -8.9541      2.00000
     24      -8.8277      2.00000
     25      -8.5374      2.00000
     26      -8.4611      2.00000
     27      -8.4187      2.00000
     28      -8.3029      2.00000
     29      -8.2777      2.00000
     30      -8.1957      2.00000
     31      -8.1468      2.00000
     32      -8.1067      2.00000
     33      -7.9655      2.00000
     34      -7.8813      2.00000
     35      -7.7769      2.00000
     36      -7.7362      2.00000
     37      -7.5233      2.00000
     38      -7.3526      2.00000
     39      -7.3104      2.00000
     40      -7.2371      2.00000
     41      -7.1265      2.00000
     42      -7.0824      2.00000
     43      -7.0550      2.00000
     44      -7.0429      2.00000
     45      -6.8169      2.00000
     46      -6.7465      2.00000
     47      -6.6172      2.00000
     48      -6.5829      2.00000
     49      -6.5607      2.00000
     50      -6.5302      2.00000
     51      -6.4531      2.00000
     52      -6.3387      2.00000
     53      -6.2595      2.00000
     54      -6.2211      2.00000
     55      -6.1680      2.00000
     56      -6.0746      2.00000
     57      -6.0442      2.00000
     58      -5.8810      2.00000
     59      -5.8395      2.00000
     60      -5.7937      2.00000
[...]
    106      -0.2800      0.00000
    107      -0.1650      0.00000
    108       0.0153      0.00000
    109       0.0281      0.00000
    110       0.0982      0.00000
    111       0.4355      0.00000
    112       0.7623      0.00000
    113       0.8315      0.00000
    114       0.9139      0.00000
    115       1.0639      0.00000
    116       1.1973      0.00000
    117       1.2663      0.00000
    118       2.1908      0.00000
    119       2.2565      0.00000
    120       2.4093      0.00000

 soft charge-density along one line, spin component           1
         0         1         2         3         4         5         6         7         8         9
 total charge-density along one line

------------------------ aborting loop because EDIFF is reached ----------------------------------------

  FORCE on cell =-STRESS in cart. coord.  units (eV):
  Direction    XX          YY          ZZ          XY          YZ          ZX
  Alpha Z    89.20495    89.20495    89.20495
  Ewald   49154.66903 49242.28459-54132.22282    -1.29476    -1.84632   -21.42264
  Hartree 49886.59401 49941.75625-49555.88502    -0.84728    -0.27694   -13.45085
  E(xc)    -611.42410  -609.03950  -617.69698    -0.01821     0.08602     0.93959
  Local  ************************101126.04299     1.69964     2.03142    44.76790
  n-local  1216.71318  1213.28418  1248.60657     0.13933    -0.48748     3.00637
  augment  -212.20640  -213.31312  -214.60780    -0.39816    -0.36384    -0.78421
  Kinetic  2020.20074  2001.75785  2054.78081     0.72003     0.84226   -12.94925
  Fock        0.00000     0.00000     0.00000     0.00000     0.00000     0.00000
  Total       0.30316     0.26172    -1.77729     0.00060    -0.01488     0.10692
  in kB       0.20239     0.17472    -1.18651     0.00040    -0.00994     0.07138

 VOLUME and BASIS-vectors are now :
  energy-cutoff  :      280.00
  volume of cell :     2399.93
      direct lattice vectors                 reciprocal lattice vectors
     8.339656894  4.802381967  0.000000000     0.059915647  0.104182480  0.000000000
    -8.334350143  4.793108932  0.000000000    -0.060031563  0.104248817  0.000000000
     0.000000000  0.000000000 30.000000000     0.000000000  0.000000000  0.033333333

  length of vectors
     9.623551822  9.614327097 30.000000000     0.120182669  0.120297981  0.033333333

 FORCES acting on ions
    electron-ion (+dipol)            ewald-force                    non-local-force                 convergence-correction
   -.219E+02 -.152E+00 0.241E+02   0.233E+02 -.126E+00 -.239E+02   -.139E+01 0.284E+00 -.123E+00   -.397E-01 -.611E-02 -.658E-01
   0.224E+02 0.322E+00 -.248E+02   -.239E+02 -.269E+00 0.246E+02   0.146E+01 -.336E-02 0.163E+00   0.645E-01 -.470E-01 0.775E-01
   -.265E+02 -.199E+01 0.125E+02   0.281E+02 0.240E+01 -.123E+02   -.157E+01 -.375E+00 -.166E+00   -.567E-01 -.316E-01 -.294E-01
   -.471E+01 -.196E+02 0.148E+01   0.477E+01 0.197E+02 -.146E+01   0.429E-01 0.159E-01 -.347E-01   -.106E+00 -.719E-01 0.127E-01
   -.567E+00 0.231E+02 0.784E+00   0.625E+00 -.230E+02 -.837E+00   -.586E-02 -.130E+00 0.484E-01   -.639E-01 0.591E-01 0.723E-02
   -.740E+01 -.434E+01 0.209E+01   0.724E+01 0.420E+01 -.215E+01   0.234E+00 0.987E-01 0.563E-01   -.697E-01 0.422E-01 0.624E-02
   0.359E+02 0.549E+01 -.138E+02   -.369E+02 -.584E+01 0.135E+02   0.992E+00 0.299E+00 0.255E+00   0.678E-01 0.359E-01 0.180E-01
   -.346E+02 0.341E+01 0.123E+02   0.357E+02 -.356E+01 -.122E+02   -.111E+01 0.112E+00 -.156E+00   -.106E-01 0.478E-01 -.895E-02
   0.365E+02 -.626E+01 -.166E+02   -.374E+02 0.656E+01 0.164E+02   0.833E+00 -.295E+00 0.191E+00   0.105E+00 0.674E-02 0.143E-01
   0.981E+01 0.541E+01 0.483E+03   -.996E+01 -.554E+01 -.488E+03   0.809E-01 0.969E-01 0.479E+01   0.669E-01 0.189E-01 -.640E-01
   0.226E+02 0.103E+02 -.604E+03   -.234E+02 -.107E+02 0.607E+03   0.769E+00 0.390E+00 -.377E+01   0.410E-02 0.167E-01 0.124E-01
   -.217E+02 -.643E+01 0.592E+03   0.228E+02 0.664E+01 -.595E+03   -.934E+00 -.144E+00 0.344E+01   -.133E+00 -.565E-01 -.817E-01
   -.380E+01 -.199E+01 -.484E+03   0.281E+01 0.190E+01 0.488E+03   0.858E+00 0.140E+00 -.473E+01   0.121E+00 -.357E-01 0.124E+00
   0.683E+01 -.134E+00 0.567E+03   -.887E+01 0.121E+00 -.570E+03   0.200E+01 0.897E-01 0.306E+01   0.160E-01 -.748E-01 -.153E-01
   -.823E+01 0.160E+01 -.564E+03   0.106E+02 -.159E+01 0.567E+03   -.220E+01 0.528E-01 -.295E+01   -.168E+00 -.622E-01 0.106E+00
   0.166E+02 0.702E+01 0.629E+03   -.174E+02 -.749E+01 -.633E+03   0.817E+00 0.426E+00 0.342E+01   0.148E-02 0.463E-01 0.189E-01
   -.197E+02 0.388E+01 -.625E+03   0.209E+02 -.444E+01 0.628E+03   -.107E+01 0.526E+00 -.335E+01   -.537E-01 0.418E-01 0.126E-01
   0.201E+02 -.161E+00 0.507E+03   -.205E+02 0.996E-01 -.512E+03   0.264E+00 0.399E-01 0.503E+01   0.155E+00 0.186E-01 -.502E-01
   0.251E+02 -.515E+00 -.628E+03   -.259E+02 0.597E+00 0.631E+03   0.780E+00 -.109E+00 -.373E+01   0.478E-01 0.238E-01 -.454E-01
   -.232E+02 0.906E+01 0.604E+03   0.239E+02 -.952E+01 -.608E+03   -.673E+00 0.376E+00 0.378E+01   -.421E-01 0.842E-01 -.960E-01
   -.494E+01 0.346E+01 -.490E+03   0.424E+01 -.365E+01 0.495E+03   0.584E+00 0.903E-01 -.496E+01   0.110E+00 0.884E-01 0.891E-01
   -.266E+02 -.350E+01 0.604E+03   0.277E+02 0.366E+01 -.608E+03   -.106E+01 -.132E+00 0.336E+01   -.699E-01 -.377E-01 -.277E-01
   -.150E+02 -.200E+01 -.495E+03   0.150E+02 0.222E+01 0.500E+03   0.102E-01 -.166E+00 -.480E+01   0.203E-01 -.561E-01 0.695E-01
   0.142E+02 -.704E+01 0.627E+03   -.152E+02 0.758E+01 -.630E+03   0.978E+00 -.561E+00 0.339E+01   0.271E-01 0.231E-01 0.890E-01
   -.204E+02 -.449E+01 -.604E+03   0.220E+02 0.507E+01 0.606E+03   -.143E+01 -.596E+00 -.293E+01   -.161E+00 0.131E-01 0.917E-03
   0.777E+01 -.480E+01 0.488E+03   -.728E+01 0.504E+01 -.493E+03   -.515E+00 -.201E+00 0.505E+01   0.353E-01 -.334E-01 -.248E-01
   0.222E+02 -.964E+01 -.608E+03   -.229E+02 0.999E+01 0.612E+03   0.604E+00 -.302E+00 -.392E+01   0.671E-01 -.366E-01 -.507E-01
   0.733E+00 -.388E-01 -.518E+00   -.568E-13 -.160E-13 -.227E-12   -.663E+00 0.219E-01 0.416E+00   -.656E-01 0.173E-01 0.984E-01

 POSITION                                       TOTAL-FORCE (eV/Angst)
     -3.11100      4.78754     -0.08537        -0.013752      0.000182     -0.034304
      0.32461     -0.00617      0.08804         0.028695      0.002577      0.026833
      5.29190      6.39641     -0.05101        -0.007381      0.002806     -0.004980
     -5.58780      3.01143     -0.00307        -0.004827      0.010064     -0.000951
      2.78385      1.79498     -0.00199        -0.011310     -0.015915      0.002487
      2.73863      4.78018     -0.00741         0.004700      0.008167     -0.004360
      0.29305      3.22515      0.04771         0.001447     -0.016379      0.002117
      5.26216      3.22948     -0.04411         0.002975      0.004662     -0.010401
      0.30757      6.35856      0.05552         0.003209      0.011074     -0.003189
     -0.91469      1.56636     28.73440         0.005150     -0.011759      0.015329
      0.95250      1.59059      1.65670         0.002946     -0.007680      0.007105
     -3.71087      3.16809     28.38372         0.001017      0.002467     -0.006780
     -1.88125      3.21216      1.26784        -0.005568      0.005741     -0.021487
     -6.45179      4.79510     28.49253        -0.023428      0.002252      0.020267
     -4.66648      4.79256      1.49804         0.012840      0.000252     -0.006982
      1.87839      3.22288     28.30381        -0.001765      0.000059      0.005082
      3.67989      3.23437      1.68328         0.002618      0.002467      0.005549
     -0.95892      4.79757     28.65358        -0.001750     -0.002786      0.011307
      0.95365      4.79602      1.72193         0.005550     -0.003201      0.001566
     -3.73105      6.38716     28.34215        -0.004718      0.001115     -0.008202
     -1.86836      6.35646      1.28767        -0.007816     -0.009690     -0.012035
      4.63354      4.84100     28.35062        -0.001260     -0.002348     -0.001673
      6.50885      4.82649      1.31093         0.002642      0.000927     -0.008797
      1.87760      6.36937     28.31003        -0.003815      0.001548      0.013139
      3.74280      6.37800      1.61473         0.004696     -0.000179     -0.007554
     -0.90095      8.02406     28.71911         0.004937      0.009329      0.021755
      0.95750      7.99535      1.67063         0.003967      0.004250     -0.000839
    total drift:                                0.005221      0.000408     -0.003786

  FREE ENERGIE OF THE ION-ELECTRON SYSTEM (eV)
  free  energy   TOTEN  =      -192.46557406 eV

  energy  without entropy=     -192.34040283  energy(sigma->0) =     -192.40298845

 d Force = 0.9223338E-03[ 0.693E-03, 0.115E-02]  d Energy = 0.5496942E-03 0.373E-03
 d Force = 0.5252874E+00[ 0.542E+00, 0.509E+00]  d Ewald  =-0.2672964E+01 0.320E+01

 Quasi-Newton relaxation of ions (Broydens 2nd method)
  g(Force)  = 0.390E-03   g(Stress)= 0.287E-03

 retain information from N=  3 steps
 eigenvalues of (default step * inverse Hessian matrix)
  average eigenvalue of G=   3.0383
 eigenvalue spectrum of G is  4.2300  4.2300  0.6549

 reached required accuracy - stopping structural energy minimisation