 vasp.5.4.1 05Feb16 (build Jul 05 2020 17:13:04) complex

 executed on           IFC91_ompi date 2024.05.08  01:54:26

 INCAR:
 POTCAR:   PAW_PBE V 08Apr2002
 POTCAR:   PAW_PBE Mo 08Apr2002
 POTCAR:   PAW_PBE W 08Apr2002
 POTCAR:    PAW_PBE S 17Jan2003

 POTCAR:   PAW_PBE V 08Apr2002
   VRHFIN =V: p6 d4 s1

   TITEL  = PAW_PBE V 08Apr2002
   POMASS =   50.941; ZVAL   =    5.000    mass and valenz
   ENMAX  =  192.543; ENMIN  =  144.408 eV
   QCUT   =   -3.762; QGAM   =    7.524    optimization parameters

   Description
     l     E      TYP  RCUT    TYP  RCUT
     2   .000     23  2.700
     2   .000     23  2.700
     0   .000     23  2.700
     0  2.000     23  2.700
     1   .000     23  2.700
     1  2.000     23  2.700
     3   .000      7   .000

 POTCAR:   PAW_PBE Mo 08Apr2002
   VRHFIN =Mo: 4p5s4d

[...]

 POTCAR:   PAW_PBE W 08Apr2002
   VRHFIN =W : 6s5d

   TITEL  = PAW_PBE W 08Apr2002
   POMASS =  183.850; ZVAL   =    6.000    mass and valenz
   ENMAX  =  223.057; ENMIN  =  167.293 eV
   QCUT   =   -4.049; QGAM   =    8.098    optimization parameters

[...]

 POTCAR:    PAW_PBE S 17Jan2003
   VRHFIN =S : s2p4

   TITEL  = PAW_PBE S 17Jan2003
   POMASS =   32.066; ZVAL   =    6.000    mass and valenz
   ENMAX  =  280.000; ENMIN  =  194.016 eV
   QCUT   =   -4.360; QGAM   =    8.721    optimization parameters

   Description
     l     E      TYP  RCUT    TYP  RCUT
     0   .000     23  1.900
     0   .000     23  1.900
     1   .000     23  1.900
     1   .000     23  1.900
     2   .000     23  1.900

 PAW_PBE V 08Apr2002                    :
 PAW_PBE Mo 08Apr2002                   :
 PAW_PBE W 08Apr2002                    :
  PAW_PBE S 17Jan2003                   :

 POSCAR: crystal structure from VMoWS2 with Hexag
  positions in cartesian coordinates
 exchange correlation table for  LEXCH =        8
   RHO(1)=    0.500       N(1)  =     2000
   RHO(2)=  100.500       N(2)  =     4000

 ion  position               nearest neighbor table
   1  1.000  0.333  0.000-  25 2.34  10 2.34  13 2.36  12 2.36  22 2.36  23 2.36
   2  0.667  0.000  0.000-  17 2.34  26 2.34  23 2.36  22 2.36  21 2.36  20 2.36
   3  0.667  0.667  0.000-  21 2.34  24 2.34  27 2.36  26 2.36  19 2.36  18 2.36
   4  0.333  0.000  0.000-  11 2.34  20 2.34  17 2.36  16 2.36  15 2.36  14 2.36   5 3.34   6 3.34
                             7 3.34   8 3.36   9 3.36
   5  0.333  0.667  0.000-  15 2.34  18 2.34  20 2.36  21 2.36  13 2.36  12 2.36   4 3.34   6 3.34
                             8 3.34
   6  0.333  0.333  0.000-  13 2.34  16 2.34  19 2.36  18 2.36  11 2.36  10 2.36   5 3.34   4 3.34
                             9 3.34   7 3.36
   7  0.000  0.000  0.000-  23 2.34  14 2.34  11 2.36  10 2.36  27 2.36  26 2.36   8 3.34   4 3.34
                             6 3.36
   8  0.000  0.667  0.000-  27 2.34  12 2.34  14 2.36  15 2.36  24 2.36  25 2.36   7 3.34   5 3.34
                             4 3.36   9 3.36
   9  0.667  0.333  0.000-  19 2.34  22 2.34  25 2.36  24 2.36  17 2.36  16 2.36   6 3.34   8 3.36
                             4 3.36
  10  0.111  0.222  0.955-   1 2.34   7 2.36   6 2.36
  11  0.222  0.111  0.045-   4 2.34   7 2.36   6 2.36
  12  0.111  0.556  0.955-   8 2.34   1 2.36   5 2.36
  13  0.222  0.444  0.045-   6 2.34   1 2.36   5 2.36
  14  0.111  0.889  0.955-   7 2.34   8 2.36   4 2.36
  15  0.222  0.777  0.045-   5 2.34   8 2.36   4 2.36
  16  0.444  0.222  0.955-   6 2.34   4 2.36   9 2.36
  17  0.556  0.111  0.045-   2 2.34   4 2.36   9 2.36
  18  0.444  0.556  0.955-   5 2.34   6 2.36   3 2.36
  19  0.556  0.444  0.045-   9 2.34   6 2.36   3 2.36
  20  0.444  0.889  0.955-   4 2.34   5 2.36   2 2.36
  21  0.556  0.777  0.045-   3 2.34   5 2.36   2 2.36
  22  0.777  0.222  0.955-   9 2.34   2 2.36   1 2.36
  23  0.889  0.111  0.045-   7 2.34   2 2.36   1 2.36
  24  0.777  0.556  0.955-   3 2.34   9 2.36   8 2.36
  25  0.889  0.444  0.045-   1 2.34   9 2.36   8 2.36
  26  0.777  0.889  0.955-   2 2.34   3 2.36   7 2.36
  27  0.889  0.777  0.045-   8 2.34   3 2.36   7 2.36

IMPORTANT INFORMATION: All symmetrisations will be switched off!
NOSYMM: (Re-)initialisation of all symmetry stuff for point group C_1.

 KPOINTS: K-POINTS 	#supercell of CrS2 in hexagona

Automatic generation of k-mesh.
Space group operators:
 irot       det(A)        alpha          n_x          n_y          n_z        tau_x        tau_y        tau_z
    1     1.000000     0.000000     1.000000     0.000000     0.000000     0.000000     0.000000     0.000000

 Subroutine IBZKPT returns following result:

 Found     34 irreducible k-points:

 Following reciprocal coordinates:
            Coordinates               Weight
  0.000000  0.000000  0.000000      1.000000
  0.125000  0.000000  0.000000      2.000000
  0.250000  0.000000  0.000000      2.000000
  0.375000  0.000000  0.000000      2.000000
  0.500000  0.000000  0.000000      1.000000
  0.000000  0.125000  0.000000      2.000000
  0.125000  0.125000  0.000000      2.000000
  0.250000  0.125000  0.000000      2.000000
  0.375000  0.125000  0.000000      2.000000
  0.500000  0.125000  0.000000      2.000000
 -0.375000  0.125000  0.000000      2.000000
 -0.250000  0.125000  0.000000      2.000000
 -0.125000  0.125000  0.000000      2.000000
  0.000000  0.250000  0.000000      2.000000
  0.125000  0.250000  0.000000      2.000000
  0.250000  0.250000  0.000000      2.000000
  0.375000  0.250000  0.000000      2.000000
  0.500000  0.250000  0.000000      2.000000
 -0.375000  0.250000  0.000000      2.000000
 -0.250000  0.250000  0.000000      2.000000
 -0.125000  0.250000  0.000000      2.000000
 -0.000000  0.375000  0.000000      2.000000
  0.125000  0.375000  0.000000      2.000000
  0.250000  0.375000  0.000000      2.000000
  0.375000  0.375000  0.000000      2.000000
  0.500000  0.375000  0.000000      2.000000
 -0.375000  0.375000  0.000000      2.000000
 -0.250000  0.375000  0.000000      2.000000
 -0.125000  0.375000  0.000000      2.000000
  0.000000  0.500000  0.000000      1.000000
  0.125000  0.500000  0.000000      2.000000
  0.250000  0.500000  0.000000      2.000000
  0.375000  0.500000  0.000000      2.000000
  0.500000  0.500000  0.000000      1.000000

 Following cartesian coordinates:
            Coordinates               Weight
  0.000000  0.000000  0.000000      1.000000
  0.007209  0.012401  0.000000      2.000000
  0.014418  0.024802  0.000000      2.000000
  0.021626  0.037202  0.000000      2.000000
  0.028835  0.049603  0.000000      1.000000
 -0.007209  0.012401  0.000000      2.000000
  0.000000  0.024802  0.000000      2.000000
  0.007209  0.037202  0.000000      2.000000
  0.014418  0.049603  0.000000      2.000000
  0.021626  0.062004  0.000000      2.000000
 -0.028835 -0.024802  0.000000      2.000000
 -0.021626 -0.012401  0.000000      2.000000
 -0.014418  0.000000  0.000000      2.000000
 -0.014418  0.024802  0.000000      2.000000
 -0.007209  0.037202  0.000000      2.000000
  0.000000  0.049603  0.000000      2.000000
  0.007209  0.062004  0.000000      2.000000
  0.014418  0.074405  0.000000      2.000000
 -0.036044 -0.012401  0.000000      2.000000
 -0.028835  0.000000  0.000000      2.000000
 -0.021626  0.012401  0.000000      2.000000
 -0.021626  0.037202  0.000000      2.000000
 -0.014418  0.049603  0.000000      2.000000
 -0.007209  0.062004  0.000000      2.000000
  0.000000  0.074405  0.000000      2.000000
  0.007209  0.086806  0.000000      2.000000
 -0.043253  0.000000  0.000000      2.000000
 -0.036044  0.012401  0.000000      2.000000
 -0.028835  0.024802  0.000000      2.000000
 -0.028835  0.049603  0.000000      1.000000
 -0.021626  0.062004  0.000000      2.000000
 -0.014418  0.074405  0.000000      2.000000
 -0.007209  0.086806  0.000000      2.000000
  0.000000  0.099206  0.000000      1.000000

 I would recommend the setting:
   dimension x,y,z NGX =    41 NGY =   41 NGZ =  123
 SYSTEM =  unknown system
 POSCAR =  crystal structure from VMoWS2 with Hexag

 Startparameter for this run:
   NWRITE =      2    write-flag & timer
   PREC   = normal    normal or accurate (medium, high low for compatibility)
   ISTART =      0    job   : 0-new  1-cont  2-samecut
   ICHARG =      2    charge: 1-file 2-atom 10-const
   ISPIN  =      1    spin polarized calculation?
   LNONCOLLINEAR =      F non collinear calculations
   LSORBIT =      F    spin-orbit coupling
   INIWAV =      1    electr: 0-lowe 1-rand  2-diag
   LASPH  =      F    aspherical Exc in radial PAW
   METAGGA=      F    non-selfconsistent MetaGGA calc.

 Electronic Relaxation 1
   ENCUT  =  280.0 eV  20.58 Ry    4.54 a.u.  13.68 13.68 40.93*2*pi/ulx,y,z
   ENINI  =  280.0     initial cutoff
   ENAUG  =  373.4 eV  augmentation charge cutoff
   NELM   =     60;   NELMIN=  2; NELMDL= -5     # of ELM steps
   EDIFF  = 0.1E-03   stopping-criterion for ELM
   LREAL  =      F    real-space projection
   NLSPLINE    = F    spline interpolate recip. space projectors
   LCOMPAT=      F    compatible to vasp.4.4
   GGA_COMPAT  = T    GGA compatible to vasp.4.4-vasp.4.6
   LMAXPAW     = -100 max onsite density
   LMAXMIX     =    2 max onsite mixed and CHGCAR
   VOSKOWN=      0    Vosko Wilk Nusair interpolation
   ROPT   =    0.00000   0.00000   0.00000   0.00000
 Ionic relaxation
   EDIFFG = 0.1E-02   stopping-criterion for IOM
   NSW    =    100    number of steps for IOM
   NBLOCK =      1;   KBLOCK =    100    inner block; outer block
   IBRION =      1    ionic relax: 0-MD 1-quasi-New 2-CG
   NFREE  =      0    steps in history (QN), initial steepest desc. (CG)
   ISIF   =      3    stress and relaxation
   IWAVPR =     11    prediction:  0-non 1-charg 2-wave 3-comb
   ISYM   =      0    0-nonsym 1-usesym 2-fastsym
   LCORR  =      T    Harris-Foulkes like correction to forces

   POTIM  = 0.5000    time-step for ionic-motion
   TEIN   =    0.0    initial temperature
   TEBEG  =    0.0;   TEEND  =   0.0 temperature during run
   SMASS  =  -3.00    Nose mass-parameter (am)
   estimated Nose-frequenzy (Omega)   =  0.10E-29 period in steps =****** mass=  -0.230E-26a.u.
   SCALEE = 1.0000    scale energy and forces
   NPACO  =    256;   APACO  = 16.0  distance and # of slots for P.C.
   PSTRESS=    0.0 pullay stress

  Mass of Ions in am
   POMASS =  50.94 95.94183.85 32.07
  Ionic Valenz
   ZVAL   =   5.00  6.00  6.00  6.00
  Atomic Wigner-Seitz radii
  virtual crystal weights
   VCA    =   1.00  1.00  1.00  1.00
   NELECT =     159.0000    total number of electrons
   NUPDOWN=      -1.0000    fix difference up-down

 DOS related values:
   EMIN   =  10.00;   EMAX   =-10.00  energy-range for DOS
   EFERMI =   0.00
   ISMEAR =     0;   SIGMA  =   0.20  broadening in eV -4-tet -1-fermi 0-gaus

 Electronic relaxation 2 (details)
   IALGO  =     38    algorithm
   LDIAG  =      T    sub-space diagonalisation (order eigenvalues)
   LSUBROT=      F    optimize rotation matrix (better conditioning)
   TURBO    =      0    0=normal 1=particle mesh
   IRESTART =      0    0=no restart 2=restart with 2 vectors
   NREBOOT  =      0    no. of reboots
   NMIN     =      0    reboot dimension
   EREF     =   0.00    reference energy to select bands
[...]
     -6.74900      5.03900     28.66200         0.072195     -0.141903     -2.940443
     -4.81100      5.03900      1.33800        -0.206378     -0.124798      2.904288
      1.92100      3.35900     28.66200         0.223748      0.141258     -2.880428
      3.85900      3.35900      1.33800         0.657349      0.145569      2.131572
     -0.96900      5.03900     28.66200         0.511041      0.693079     -2.149092
      0.96900      5.03900      1.33800        -0.382996      0.713225      2.206386
     -3.85900      6.71900     28.66200         0.516605      0.691306     -2.144230
     -1.92100      6.71900      1.33800         0.347964      0.668437      1.446528
      4.81100      5.03900     28.66200         0.740980      0.017974     -1.457506
      6.74900      5.03900      1.33800        -0.737960     -0.001733      1.444637
      1.92100      6.71900     28.66200        -0.584683      0.013469     -2.070183
      3.85900      6.71900      1.33800         0.591024     -0.004556      2.071431
     -0.96900      8.39900     28.66200        -0.235872     -0.529082     -1.386361
      0.96900      8.39900      1.33800        -0.491236     -0.601882      2.151192
    total drift:                               -0.000020      0.000062     -0.000085

  FREE ENERGIE OF THE ION-ELECTRON SYSTEM (eV)
  free  energy   TOTEN  =      -186.89428640 eV

  energy  without entropy=     -186.55273442  energy(sigma->0) =     -186.72351041

 Quasi-Newton relaxation of ions (Broydens 2nd method)
  g(Force)  = 0.468E+01   g(Stress)= 0.349E+00

 Reset! Starting new Quasi-Newton update for ions

[...]

 d Force = 0.2377246E+01[ 0.666E-01, 0.469E+01]  d Energy = 0.1804056E+01 0.573E+00
 d Force = 0.9582785E+03[ 0.941E+03, 0.976E+03]  d Ewald  = 0.2510707E+04-0.155E+04

[...]

 retain information from N=  1 steps
 eigenvalues of (default step * inverse Hessian matrix)
  average eigenvalue of G=   0.2404
 eigenvalue spectrum of G is  0.2404

[...]

 d Force = 0.3526589E-01[ 0.343E-01, 0.363E-01]  d Energy = 0.1092109E+01-0.106E+01
 d Force =-0.2896992E+01[-0.296E+01,-0.283E+01]  d Ewald  =-0.1918440E+04 0.192E+04

[...]

 d Force = 0.4747425E+00[ 0.417E+00, 0.532E+00]  d Energy = 0.1001185E+01-0.526E+00
 d Force = 0.4105995E+03[ 0.420E+03, 0.401E+03]  d Ewald  =-0.1527515E+04 0.194E+04

[...]

 d Force = 0.1337144E+00[ 0.130E+00, 0.137E+00]  d Energy = 0.1350502E+00-0.134E-02
 d Force =-0.3303304E+01[-0.323E+01,-0.338E+01]  d Ewald  = 0.2443408E+02-0.277E+02

[...]

 d Force =-0.6318970E-03[-0.996E-03,-0.268E-03]  d Energy =-0.2925533E-03-0.339E-03
 d Force = 0.4753184E+01[ 0.475E+01, 0.475E+01]  d Ewald  = 0.5257997E+02-0.478E+02

[...]

 d Force = 0.9612196E-03[ 0.794E-03, 0.113E-02]  d Energy = 0.6598965E-03 0.301E-03
 d Force =-0.3211064E+01[-0.321E+01,-0.321E+01]  d Ewald  = 0.3579018E+02-0.390E+02

[...]

 d Force = 0.5735572E-03[ 0.517E-03, 0.631E-03]  d Energy = 0.6797873E-03-0.106E-03
 d Force =-0.1431704E+01[-0.143E+01,-0.143E+01]  d Ewald  =-0.3069774E+02 0.293E+02

[...]

 d Force = 0.1390751E-02[ 0.126E-02, 0.152E-02]  d Energy = 0.1155133E-02 0.236E-03
 d Force = 0.5510984E+01[ 0.552E+01, 0.550E+01]  d Ewald  =-0.1491520E+02 0.204E+02

[...]

 FEWALD executed in parallel

[...]

 eigenvalue-minimisations  : 10240
 total energy-change (2. order) : 0.6239174E-03  (-0.9101472E-04)
 number of electron     158.9999960 magnetization
 augmentation part       -4.2207527 magnetization

 Broyden mixing:
  rms(total) = 0.47768E-02    rms(broyden)= 0.47654E-02
  rms(prec ) = 0.51128E-02
  weight for this iteration     100.00

 eigenvalues of (default mixing * dielectric matrix)
  average eigenvalue GAMMA=   0.5716
  0.9594  0.1837

[...]

----------------------------------------- Iteration   24(   4)  ---------------------------------------

 eigenvalue-minimisations  :  5680
 total energy-change (2. order) :-0.8689508E-05  (-0.7554569E-05)
 number of electron     158.9999960 magnetization
 augmentation part       -4.2207527 magnetization

 Free energy of the ion-electron system (eV)
  alpha Z        PSCENC =        89.19163005
  Ewald energy   TEWEN  =     44262.30429114
  -Hartree energ DENC   =    -50268.95721412
  -exchange      EXHF   =         0.00000000
  -V(xc)+E(xc)   XCENC  =      -233.58096746
  PAW double counting   =      4101.29726743    -3517.39166620
  entropy T*S    EENTRO =        -0.12718063
  eigenvalues    EBANDS =     -1386.64077021
  atomic energy  EATOM  =      6761.44252427
  Solvation  Ediel_sol  =         0.00000000
  free energy    TOTEN  =      -192.46208572 eV

  energy without entropy =     -192.33490509  energy(sigma->0) =     -192.39849540

 average (electrostatic) potential at core
  the test charge radii are     1.2064  1.2296  1.1823  0.9698
  (the norm of the test charge is              1.0000)
       1 -49.8099       2 -49.7271       3 -49.8513       4 -47.0294       5 -47.1137
       6 -47.0910       7 -49.5267       8 -49.5475       9 -49.6413      10 -95.0877
      11 -95.2481      12 -95.0595      13 -94.9427      14 -95.3062      15 -95.3028
      16 -95.3320      17 -95.1876      18 -94.9856      19 -95.0919      20 -95.1288
      21 -94.9370      22 -94.5514      23 -94.5760      24 -94.6891      25 -94.6836
      26 -94.5699      27 -94.6736

 E-fermi :  -3.2201     XC(G=0):  -2.5593     alpha+bet : -2.3589

[...]

 k-point    34 :       0.5000    0.5000    0.0000
  band No.  band energies     occupation
      1     -17.5381      2.00000
      2     -17.2896      2.00000
      3     -16.7952      2.00000
      4     -16.6916      2.00000
      5     -16.6775      2.00000
      6     -16.4748      2.00000
      7     -16.3503      2.00000
      8     -16.1619      2.00000
      9     -16.1176      2.00000
     10     -16.0194      2.00000
     11     -15.9116      2.00000
     12     -15.8601      2.00000
     13     -15.7352      2.00000
     14     -15.6607      2.00000
     15     -15.5657      2.00000
     16     -15.4623      2.00000
     17     -15.3661      2.00000
     18     -15.3249      2.00000
     19      -9.7826      2.00000
     20      -9.3339      2.00000
     21      -9.2389      2.00000
     22      -9.1131      2.00000
     23      -8.9611      2.00000
     24      -8.9000      2.00000
     25      -8.5899      2.00000
     26      -8.5267      2.00000
     27      -8.4481      2.00000
     28      -8.2881      2.00000
     29      -8.2566      2.00000
     30      -8.1831      2.00000
     31      -8.1237      2.00000
     32      -8.0203      2.00000
     33      -7.9735      2.00000
     34      -7.8599      2.00000
     35      -7.7459      2.00000
     36      -7.7287      2.00000
     37      -7.6031      2.00000
     38      -7.4888      2.00000
     39      -7.4111      2.00000
     40      -7.3242      2.00000
     41      -7.2014      2.00000
     42      -7.0284      2.00000
     43      -6.9956      2.00000
     44      -6.9158      2.00000
     45      -6.7513      2.00000
     46      -6.7081      2.00000
     47      -6.6397      2.00000
     48      -6.6119      2.00000
     49      -6.5292      2.00000
     50      -6.4746      2.00000
     51      -6.4361      2.00000
     52      -6.3532      2.00000
     53      -6.3242      2.00000
     54      -6.2647      2.00000
     55      -6.1726      2.00000
     56      -6.0511      2.00000
     57      -6.0224      2.00000
     58      -5.8283      2.00000
     59      -5.8075      2.00000
     60      -5.7190      2.00000
[...]
    106      -0.3719      0.00000
    107      -0.3096      0.00000
    108      -0.1299      0.00000
    109      -0.0366      0.00000
    110       0.0843      0.00000
    111       0.3757      0.00000
    112       0.6213      0.00000
    113       0.7079      0.00000
    114       0.9817      0.00000
    115       1.2057      0.00000
    116       1.3276      0.00000
    117       1.6558      0.00000
    118       2.2285      0.00000
    119       2.2575      0.00000
    120       2.3979      0.00000

 soft charge-density along one line, spin component           1
         0         1         2         3         4         5         6         7         8         9
 total charge-density along one line

------------------------ aborting loop because EDIFF is reached ----------------------------------------

  FORCE on cell =-STRESS in cart. coord.  units (eV):
  Direction    XX          YY          ZZ          XY          YZ          ZX
  Alpha Z    89.19163    89.19163    89.19163
  Ewald   49217.93027 49176.55305-54132.19582   -38.55486    16.73590    11.63604
  Hartree 49923.86461 49897.98343-49553.32836   -24.15359    11.03172     6.62930
  E(xc)    -609.69619  -610.83548  -617.71799    -1.03667    -0.77195    -0.53720
  Local  ************************101123.26917    53.58941   -36.53604   -23.20821
  n-local  1214.22790  1215.60531  1248.49484     1.50691    -2.84448    -1.05935
  augment  -213.61471  -212.40307  -214.86136     0.27019     0.49491     0.68498
  Kinetic  2007.45797  2015.35908  2055.06956     8.38400    11.72338     5.78094
  Fock        0.00000     0.00000     0.00000     0.00000     0.00000     0.00000
  Total       0.04155     0.04248    -2.07832     0.00539    -0.16654    -0.07350
  in kB       0.02774     0.02835    -1.38727     0.00360    -0.11117    -0.04906

 VOLUME and BASIS-vectors are now :
  energy-cutoff  :      280.00
  volume of cell :     2400.29
      direct lattice vectors                 reciprocal lattice vectors
     8.329144699  4.824151470  0.000000000     0.059898555  0.103872416  0.000000000
    -8.310786703  4.792457273  0.000000000    -0.060294685  0.104101863  0.000000000
     0.000000000  0.000000000 30.000000000     0.000000000  0.000000000  0.033333333

  length of vectors
     9.625335777  9.593582352 30.000000000     0.119905445  0.120302315  0.033333333

 FORCES acting on ions
    electron-ion (+dipol)            ewald-force                    non-local-force                 convergence-correction
   0.117E+02 0.194E+02 0.197E+02   -.124E+02 -.207E+02 -.195E+02   0.717E+00 0.127E+01 -.230E+00   -.282E-02 -.174E-01 -.380E-01
   -.148E+02 -.218E+02 -.998E+01   0.159E+02 0.229E+02 0.978E+01   -.110E+01 -.115E+01 0.202E+00   0.107E-01 0.231E-01 0.208E-01
   -.110E+02 -.190E+02 -.194E+02   0.115E+02 0.203E+02 0.192E+02   -.449E+00 -.135E+01 0.179E+00   -.332E-01 0.143E-01 0.326E-01
   -.745E+01 -.450E+01 -.231E+01   0.721E+01 0.431E+01 0.237E+01   0.185E+00 0.146E+00 -.671E-01   0.446E-01 0.297E-01 0.297E-02
   -.195E+02 0.534E+01 -.190E+01   0.195E+02 -.539E+01 0.187E+01   0.424E-01 0.288E-01 0.244E-01   0.156E-01 0.258E-01 -.628E-03
   0.195E+02 -.121E+02 -.892E+00   -.193E+02 0.121E+02 0.942E+00   -.962E-01 0.687E-01 -.488E-01   -.265E-01 -.128E-02 -.565E-02
   0.223E+02 0.284E+02 0.119E+02   -.230E+02 -.291E+02 -.116E+02   0.764E+00 0.691E+00 -.270E+00   -.597E-01 -.147E-01 -.699E-02
   0.131E+02 0.345E+02 0.150E+02   -.132E+02 -.353E+02 -.148E+02   0.133E+00 0.861E+00 -.207E+00   0.144E-01 -.310E-01 -.316E-02
   -.144E+02 -.313E+02 -.107E+02   0.148E+02 0.323E+02 0.106E+02   -.452E+00 -.101E+01 0.161E+00   0.582E-01 0.205E-02 0.412E-02
   0.201E+02 0.146E+02 0.602E+03   -.207E+02 -.151E+02 -.606E+03   0.748E+00 0.483E+00 0.373E+01   -.769E-01 -.107E-01 0.335E-01
   0.138E+02 0.107E+02 -.629E+03   -.146E+02 -.112E+02 0.633E+03   0.769E+00 0.470E+00 -.344E+01   -.848E-02 0.530E-03 0.277E-01
   0.300E+01 0.241E+02 0.606E+03   -.309E+01 -.247E+02 -.610E+03   0.322E-01 0.690E+00 0.388E+01   0.411E-01 -.658E-01 0.275E-01
   0.327E+01 0.562E+01 -.569E+03   -.432E+01 -.727E+01 0.572E+03   0.108E+01 0.170E+01 -.307E+01   -.283E-01 -.499E-01 -.177E-01
   0.122E+02 0.221E+02 0.627E+03   -.125E+02 -.228E+02 -.630E+03   0.279E+00 0.722E+00 0.375E+01   -.746E-02 -.484E-02 -.209E-01
   0.111E+01 0.153E+02 -.627E+03   -.112E+01 -.164E+02 0.631E+03   -.175E-01 0.110E+01 -.340E+01   0.158E-01 0.127E-01 0.259E-01
   -.664E+01 -.187E+02 0.625E+03   0.670E+01 0.199E+02 -.628E+03   -.611E-01 -.117E+01 0.338E+01   0.151E-01 0.867E-02 -.187E-01
   -.165E+02 -.212E+02 -.603E+03   0.171E+02 0.221E+02 0.606E+03   -.658E+00 -.850E+00 -.335E+01   0.818E-01 0.112E-01 -.537E-01
   -.276E+01 -.806E+01 0.566E+03   0.383E+01 0.998E+01 -.569E+03   -.106E+01 -.193E+01 0.299E+01   -.476E-02 0.167E-01 -.749E-02
   -.375E+01 -.247E+02 -.603E+03   0.379E+01 0.255E+02 0.607E+03   -.118E-01 -.792E+00 -.375E+01   -.801E-02 0.279E-01 -.310E-02
   -.140E+02 -.155E+02 0.604E+03   0.151E+02 0.164E+02 -.607E+03   -.122E+01 -.929E+00 0.296E+01   0.413E-01 0.668E-01 0.425E-01
   -.164E+02 -.158E+02 -.589E+03   0.170E+02 0.165E+02 0.592E+03   -.598E+00 -.750E+00 -.339E+01   -.162E-01 0.692E-01 -.637E-01
   -.925E+01 -.119E+02 0.495E+03   0.936E+01 0.118E+02 -.500E+03   -.154E+00 0.955E-01 0.478E+01   0.526E-01 -.176E-01 0.639E-01
   0.969E+01 0.641E+01 -.485E+03   -.977E+01 -.638E+01 0.490E+03   0.141E+00 0.249E-01 -.477E+01   -.617E-01 -.253E-01 -.546E-01
   0.463E+00 -.610E+01 0.491E+03   -.854E+00 0.564E+01 -.496E+03   0.375E+00 0.453E+00 0.496E+01   0.270E-03 -.479E-02 -.575E-02
   -.116E-01 0.923E+01 -.489E+03   0.394E+00 -.887E+01 0.494E+03   -.419E+00 -.329E+00 -.504E+01   0.548E-01 -.228E-01 -.216E-01
   -.338E+01 -.219E+01 0.485E+03   0.291E+01 0.152E+01 -.489E+03   0.544E+00 0.655E+00 0.472E+01   -.734E-01 -.364E-02 0.399E-01
   0.101E+02 0.178E+02 -.507E+03   -.102E+02 -.180E+02 0.512E+03   0.167E+00 0.225E+00 -.501E+01   -.278E-01 -.193E-01 0.388E-02
   0.311E+00 0.568E+00 0.358E+00   -.604E-13 0.533E-13 0.455E-12   -.318E+00 -.585E+00 -.357E+00   0.111E-01 0.197E-01 0.358E-02

 POSITION                                       TOTAL-FORCE (eV/Angst)
      5.71640      6.69848     -0.07178         0.002902      0.023351     -0.049398
      5.41488      2.98273      0.04305         0.003844      0.004533      0.020684
     -0.15815      6.12770      0.07042        -0.008288     -0.010489      0.048200
      2.73985      1.58071      0.00801        -0.007858     -0.009455     -0.003463
     -2.93553      4.86362      0.00411        -0.014359     -0.002747     -0.005218
      0.17047      3.11150      0.00252         0.017119     -0.007636     -0.004273
      0.16927      0.24105     -0.04274         0.001041     -0.004708     -0.013791
     -5.41681      3.47803     -0.05133        -0.009973      0.000326     -0.010986
      2.65236      4.54141      0.04009         0.013433     -0.003009      0.011996
     -0.92459      1.62368     28.35140         0.022464      0.007942     -0.024804
      0.96197      1.61869      1.69844        -0.004001     -0.014505     -0.007396
     -3.67304      3.21232     28.33946        -0.015501      0.026641     -0.027596
     -1.82687      3.22700      1.51680         0.000610     -0.001033     -0.024809
     -6.44994      4.81767     28.28279        -0.002453      0.000153     -0.008661
     -4.62209      4.83682      1.69158        -0.010248     -0.015423     -0.007086
      1.86474      3.16420     28.31536         0.017088      0.010127      0.006165
      3.74099      3.19451      1.64327        -0.010440     -0.007208      0.020807
     -0.93743      4.77215     28.49381         0.004374      0.006856      0.020348
      0.90718      4.79279      1.65104         0.017089     -0.016460      0.020292
     -3.68774      6.43572     28.38309         0.003000      0.014585      0.003830
     -1.85701      6.41743      1.60534        -0.017895     -0.010813      0.038252
      4.66191      4.82181     28.68890         0.006213      0.005972      0.000445
      6.45975      4.83883      1.27233        -0.003496      0.023495     -0.019282
      1.82342      6.42059     28.70630        -0.016329     -0.010933      0.018843
      3.73990      6.41795      1.28451         0.018147      0.008846     -0.015303
     -0.90964      7.98406     28.72821        -0.000048     -0.017612      0.012033
      0.92516      7.98484      1.34500        -0.006436     -0.000798      0.000171
    total drift:                                0.003741      0.002282      0.005070

  FREE ENERGIE OF THE ION-ELECTRON SYSTEM (eV)
  free  energy   TOTEN  =      -192.46208572 eV

  energy  without entropy=     -192.33490509  energy(sigma->0) =     -192.39849540

 d Force = 0.9843609E-03[ 0.907E-03, 0.106E-02]  d Energy = 0.8694015E-03 0.115E-03
 d Force = 0.2288836E+01[ 0.229E+01, 0.229E+01]  d Ewald  = 0.2591432E+01-0.303E+00

 Quasi-Newton relaxation of ions (Broydens 2nd method)
  g(Force)  = 0.930E-03   g(Stress)= 0.641E-05

 retain information from N=  1 steps
 eigenvalues of (default step * inverse Hessian matrix)
  average eigenvalue of G=   0.2774
 eigenvalue spectrum of G is  0.2774

 reached required accuracy - stopping structural energy minimisation